
Gurobi 10.0.1 (linux64) logging started Sun Nov 26 15:51:12 2023

Set parameter LogFile to value "ArtificialInstance/ExperimentV2/S4T4K1/BaDo/gurobi91.txt"
Gurobi Optimizer version 10.0.1 build v10.0.1rc0 (linux64)

CPU model: AMD EPYC 7H12 64-Core Processor, instruction set [SSE2|AVX|AVX2]
Thread count: 128 physical cores, 128 logical processors, using up to 32 threads

Academic license 656792 - for non-commercial use only - registered to b.___@student.vu.nl
Optimize a model with 315 rows, 560 columns and 1680 nonzeros
Model fingerprint: 0xa3446935
Variable types: 0 continuous, 560 integer (560 binary)
Coefficient statistics:
  Matrix range     [1e+00, 1e+00]
  Objective range  [2e+00, 2e+01]
  Bounds range     [1e+00, 1e+00]
  RHS range        [1e+00, 1e+00]
Found heuristic solution: objective 271.5024020
Presolve time: 0.00s
Presolved: 315 rows, 560 columns, 1680 nonzeros
Variable types: 0 continuous, 560 integer (560 binary)

Root relaxation: objective 1.973280e+01, 259 iterations, 0.00 seconds (0.00 work units)

    Nodes    |    Current Node    |     Objective Bounds      |     Work
 Expl Unexpl |  Obj  Depth IntInf | Incumbent    BestBd   Gap | It/Node Time

     0     0   19.73280    0   24  271.50240   19.73280  92.7%     -    0s
H    0     0                     142.8267223   19.73280  86.2%     -    0s
H    0     0                      39.4863467   19.73280  50.0%     -    0s
H    0     0                      22.9530204   19.73280  14.0%     -    0s
     0     0   21.70934    0   17   22.95302   21.70934  5.42%     -    0s

Cutting planes:
  Gomory: 1
  Zero half: 2

Explored 1 nodes (382 simplex iterations) in 0.10 seconds (0.01 work units)
Thread count was 32 (of 128 available processors)

Solution count 4: 22.953 39.4863 142.827 271.502 

Optimal solution found (tolerance 1.00e-04)
Best objective 2.295302037695e+01, best bound 2.295302037695e+01, gap 0.0000%
